AES/1_5_4/ssaes_r1-20_c5_rw1_e4_f0_k1-20_aes_min_box_aes_mc_bidirectional/ExperimentMinisat_r20_k10cnf_2011-10-29-214756/Result
WARNING: for repeatability, setting FPU to use double precision
============================[ Problem Statistics ]=============================
|                                                                             |
|  Number of variables:          1820                                         |
|  Number of clauses:            7520                                         |
|  Parse time:                   0.00 s                                       |
|  Eliminated clauses:           0.02 Mb                                      |
|  Simplification time:          0.01 s                                       |
|                                                                             |
=============================[ Search Statistics ]==============================
| Conflicts  |          ORIGINAL         |          LEARNT          | Progress |
|            |    Vars  Clauses Literals |    Limit  Clauses Lit/Cl |          |
================================================================================
|        100 |    1280     5800    19280 |     2126      100      9 |  6.593 % |
|        250 |    1280     5800    19280 |     2339      250     12 |  6.593 % |
|        475 |    1280     5800    19280 |     2573      475     14 |  6.593 % |
|        812 |    1280     5800    19280 |     2830      812     15 |  6.593 % |
|       1318 |    1280     5800    19280 |     3113     1318     15 |  6.593 % |
|       2077 |    1280     5800    19280 |     3425     2077     16 |  6.593 % |
|       3216 |    1280     5800    19280 |     3767     3216     18 |  6.593 % |
|       4924 |    1280     5800    19280 |     4144     2948     19 |  6.593 % |
|       7486 |    1280     5800    19280 |     4558     3366     16 |  6.593 % |
|      11330 |    1280     5800    19280 |     5014     2497     12 |  6.593 % |
|      17096 |    1280     5800    19280 |     5516     3083     13 |  6.593 % |
|      25745 |    1280     5800    19280 |     6067     3241     11 |  6.593 % |
|      38719 |    1280     5800    19280 |     6674     3747     14 |  6.593 % |
|      58180 |    1280     5800    19280 |     7341     6142     18 |  6.593 % |
|      87372 |    1280     5800    19280 |     8076     5324     15 |  6.593 % |
|     131161 |    1280     5800    19280 |     8883     7926     18 |  6.593 % |
|     196845 |    1280     5800    19280 |     9771     5810     16 |  6.593 % |
|     295371 |    1280     5800    19280 |    10749     5047     13 |  6.593 % |
|     443160 |    1280     5800    19280 |    11824     5531     13 |  6.593 % |
|     664843 |    1280     5800    19280 |    13006    11484     19 |  6.593 % |
|     997368 |    1280     5800    19280 |    14307     8305     13 |  6.593 % |
|    1496156 |    1280     5800    19280 |    15737     8064     14 |  6.593 % |
|    2244338 |    1280     5800    19280 |    17311     9236     15 |  6.593 % |
|    3366612 |    1280     5800    19280 |    19042    13321     18 |  6.593 % |
|    5050023 |    1280     5800    19280 |    20947    16574     15 |  6.593 % |
===============================================================================
restarts              : 9050
conflicts             : 5689133        (7080 /sec)
decisions             : 6302628        (0.00 % random) (7844 /sec)
propagations          : 2873589645     (3576132 /sec)
conflict literals     : 129307596      (56.31 % deleted)
Memory used           : 19.00 MB
CPU time              : 803.547 s

SATISFIABLE
